Set parameter TSPort to value 51199
Set parameter TokenServer to value "open-license1.lanl.gov"
Set parameter TimeLimit to value 4096
Set parameter Threads to value 1
Gurobi Optimizer version 10.0.3 build v10.0.3rc0 (linux64)

CPU model: Intel(R) Xeon(R) CPU E5-2695 v4 @ 2.10GHz, instruction set [SSE2|AVX|AVX2]
Thread count: 36 physical cores, 72 logical processors, using up to 1 threads

Optimize a model with 0 rows, 2897 columns and 0 nonzeros
Model fingerprint: 0xef41fc9c
Model has 13438 quadratic objective terms
Variable types: 0 continuous, 2897 integer (2897 binary)
Coefficient statistics:
  Matrix range     [0e+00, 0e+00]
  Objective range  [2e+00, 3e+01]
  QObjective range [8e+00, 8e+00]
  Bounds range     [1e+00, 1e+00]
  RHS range        [0e+00, 0e+00]
Found heuristic solution: objective 0.0000000
Found heuristic solution: objective -4876.000000
Found heuristic solution: objective -18070.00000
Found heuristic solution: objective -18112.00000
Presolve removed 0 rows and 1 columns (presolve time = 6s) ...
Presolve removed 0 rows and 1 columns
Presolve time: 6.50s
Presolved: 13437 rows, 16333 columns, 40311 nonzeros
Variable types: 0 continuous, 16333 integer (16333 binary)

Root simplex log...

Iteration    Objective       Primal Inf.    Dual Inf.      Time
       0   -2.7054000e+04   5.111000e+03   0.000000e+00     10s
    2384   -2.5818000e+04   2.794000e+03   0.000000e+00     10s
    4125   -2.5256000e+04   0.000000e+00   0.000000e+00     11s

Root relaxation: objective -2.525600e+04, 4125 iterations, 1.01 seconds (0.03 work units)
Total elapsed time = 10.62s

    Nodes    |    Current Node    |     Objective Bounds      |     Work
 Expl Unexpl |  Obj  Depth IntInf | Incumbent    BestBd   Gap | It/Node Time

     0     0 -25256.000    0 2896 -18112.000 -25256.000  39.4%     -   13s
     0     0 -23599.000    0 3702 -18112.000 -23599.000  30.3%     -   23s
     0     0 -23341.000    0 3859 -18112.000 -23341.000  28.9%     -   27s
     0     0 -23330.000    0 3860 -18112.000 -23330.000  28.8%     -   27s
     0     0 -23007.000    0 4082 -18112.000 -23007.000  27.0%     -   38s
     0     0 -23007.000    0 4051 -18112.000 -23007.000  27.0%     -   44s
     0     2 -23006.500    0 4045 -18112.000 -23006.500  27.0%     -   59s
     2     5 -22999.000    1 4056 -18112.000 -22999.000  27.0%  1645   60s
    14    16 -22939.000    7 4106 -18112.000 -22997.000  27.0%   329   65s
    27    29 -22864.500   14 4200 -18112.000 -22997.000  27.0%   228   70s
    44    46 -22789.500   22 4256 -18112.000 -22997.000  27.0%   176   75s
    57    59 -22733.000   29 4316 -18112.000 -22997.000  27.0%   161   80s
    72    74 -22669.000   36 4372 -18112.000 -22997.000  27.0%   148   85s
    86    88 -22598.000   43 4432 -18112.000 -22997.000  27.0%   140   90s
   104   106 -22527.000   52 4492 -18112.000 -22997.000  27.0%   131   95s
   119   121 -22443.000   60 4575 -18112.000 -22997.000  27.0%   126  100s
   136   138 -22373.000   68 4654 -18112.000 -22997.000  27.0%   122  105s
   153   155 -22294.000   77 4720 -18112.000 -22997.000  27.0%   118  110s
   167   169 -22239.000   84 4721 -18112.000 -22997.000  27.0%   115  115s
   183   185 -22170.000   92 4729 -18112.000 -22997.000  27.0%   113  120s
   200   202 -22103.000  100 4753 -18112.000 -22997.000  27.0%   111  125s
   216   218 -22032.000  108 4779 -18112.000 -22997.000  27.0%   110  130s
   233   235 -21973.500  117 4806 -18112.000 -22997.000  27.0%   107  135s
   250   252 -21909.500  125 4855 -18112.000 -22997.000  27.0%   106  140s
   266   268 -21840.500  133 4895 -18112.000 -22997.000  27.0%   107  145s
   280   282 -21780.500  140 4885 -18112.000 -22997.000  27.0%   106  150s
   295   297 -21714.500  148 4972 -18112.000 -22997.000  27.0%   103  155s
   308   310 -21663.500  154 5005 -18112.000 -22997.000  27.0%   103  160s
   324   326 -21604.500  162 5014 -18112.000 -22997.000  27.0%   103  165s
   342   344 -21527.500  171 5081 -18112.000 -22997.000  27.0%   101  170s
   359   361 -21453.000  180 5100 -18112.000 -22997.000  27.0%   100  175s
   376   378 -21389.000  188 5161 -18112.000 -22997.000  27.0%  99.2  181s
   391   393 -21329.000  196 5187 -18112.000 -22997.000  27.0%  98.2  185s
   404   406 -21284.000  202 5189 -18112.000 -22997.000  27.0%  99.1  190s
   419   421 -21216.000  210 5219 -18112.000 -22997.000  27.0%  98.4  195s
   433   435 -21157.000  217 5268 -18112.000 -22997.000  27.0%  97.9  200s
   453   455 -21093.000  227 5315 -18112.000 -22997.000  27.0%  96.6  205s
   468   470 -21044.000  234 5359 -18112.000 -22997.000  27.0%  95.9  210s
   481   483 -21005.000  241 5386 -18112.000 -22997.000  27.0%  95.1  215s
   496   498 -20969.000  248 5401 -18112.000 -22997.000  27.0%  95.4  220s
   512   514 -20906.000  257 5376 -18112.000 -22997.000  27.0%  95.3  225s
   528   530 -20847.000  265 5364 -18112.000 -22997.000  27.0%  94.7  230s
   540   542 -20801.000  271 5371 -18112.000 -22997.000  27.0%  94.0  235s
   553   555 -20763.000  277 5413 -18112.000 -22997.000  27.0%  94.9  240s
   567   569 -20713.000  284 5424 -18112.000 -22997.000  27.0%  93.9  246s
   582   584 -20660.000  292 5418 -18112.000 -22997.000  27.0%  93.1  250s
   598   600 -20611.000  300 5404 -18112.000 -22997.000  27.0%  92.1  255s
   619   621 -20557.000  310 5431 -18112.000 -22997.000  27.0%  90.8  260s
   633   635 -20506.000  317 5479 -18112.000 -22997.000  27.0%  90.5  265s
   648   650 -20450.000  325 5510 -18112.000 -22997.000  27.0%  89.5  270s
   664   666 -20393.000  333 5536 -18112.000 -22997.000  27.0%  88.6  275s
   680   682 -20337.000  341 5563 -18112.000 -22997.000  27.0%  88.1  280s
   698   700 -20277.000  350 5615 -18112.000 -22997.000  27.0%  87.3  285s
   711   713 -20233.000  356 5617 -18112.000 -22997.000  27.0%  87.5  290s
   729   731 -20174.000  365 5635 -18112.000 -22997.000  27.0%  86.9  295s
   745   747 -20112.000  373 5659 -18112.000 -22997.000  27.0%  86.3  300s
   758   760 -20066.500  380 5660 -18112.000 -22997.000  27.0%  85.8  306s
   773   775 -20021.500  387 5664 -18112.000 -22997.000  27.0%  85.4  310s
   790   792 -19971.500  396 5658 -18112.000 -22997.000  27.0%  84.9  315s
   808   810 -19913.500  405 5683 -18112.000 -22997.000  27.0%  84.4  320s
   822   824 -19862.500  412 5685 -18112.000 -22997.000  27.0%  84.0  325s
   837   839 -19829.500  419 5681 -18112.000 -22997.000  27.0%  83.7  331s
   851   853 -19787.500  426 5690 -18112.000 -22997.000  27.0%  83.2  335s
   864   866 -19740.500  433 5717 -18112.000 -22997.000  27.0%  82.8  367s
   872   874 -19717.500  437 5702 -18112.000 -22997.000  27.0%  82.5  370s
   888   890 -19670.500  445 5734 -18112.000 -22997.000  27.0%  82.0  375s
   909   911 -19600.000  455 5706 -18112.000 -22997.000  27.0%  81.2  405s
   910   912 -19594.000  456 5703 -18112.000 -22997.000  27.0%  81.2  414s
   912   914 -19584.000  457 5711 -18112.000 -22997.000  27.0%  81.1  415s
   933   935 -19530.000  468 5683 -18112.000 -22997.000  27.0%  80.5  420s
   954   956 -19472.000  478 5709 -18112.000 -22997.000  27.0%  79.9  425s
   974   976 -19421.000  488 5688 -18112.000 -22997.000  27.0%  79.0  430s
   993   995 -19360.000  498 5686 -18112.000 -22997.000  27.0%  78.6  435s
  1015  1017 -19318.000  509 5669 -18112.000 -22997.000  27.0%  77.7  440s
  1034  1036 -19268.000  518 5677 -18112.000 -22997.000  27.0%  77.4  445s
  1054  1056 -19218.000  528 5729 -18112.000 -22997.000  27.0%  77.1  450s
  1072  1074 -19189.000  537 5713 -18112.000 -22997.000  27.0%  76.7  455s
  1092  1094 -19145.000  547 5694 -18112.000 -22997.000  27.0%  76.3  460s
  1112  1114 -19109.000  557 5678 -18112.000 -22997.000  27.0%  75.7  465s
  1136  1138 -19094.000  571 5643 -18112.000 -22997.000  27.0%  74.8  471s
  1152  1154 -19051.000  579 5625 -18112.000 -22997.000  27.0%  74.6  475s
  1169  1171 -19000.000  587 5609 -18112.000 -22997.000  27.0%  74.7  485s
H 1170  1170                    -18116.00000 -22997.000  26.9%  74.6  485s
  1188  1190 -18964.000  597 5591 -18116.000 -22997.000  26.9%  74.5  490s
  1208  1210 -18922.000  607 5560 -18116.000 -22997.000  26.9%  74.2  495s
  1227  1229 -18873.000  616 5563 -18116.000 -22997.000  26.9%  73.9  500s
  1248  1250 -18818.500  627 5560 -18116.000 -22997.000  26.9%  73.7  505s
  1268  1270 -18786.500  637 5550 -18116.000 -22997.000  26.9%  73.5  510s
  1287  1289 -18743.500  646 5556 -18116.000 -22997.000  26.9%  73.2  515s
  1307  1309 -18699.500  656 5499 -18116.000 -22997.000  26.9%  72.9  520s
  1314  1316 -18682.000  660 5493 -18116.000 -22997.000  26.9%  72.9  527s
  1323  1325 -18657.000  664 5476 -18116.000 -22997.000  26.9%  72.8  530s
  1343  1345 -18621.000  674 5434 -18116.000 -22997.000  26.9%  72.5  535s
  1364  1366 -18577.000  685 5377 -18116.000 -22997.000  26.9%  72.1  540s
  1384  1386 -18520.000  695 5370 -18116.000 -22997.000  26.9%  71.8  545s
H 1404  1404                    -18118.00000 -22997.000  26.9%  71.3  550s
  1424  1426 -18425.500  715 5368 -18118.000 -22997.000  26.9%  71.1  555s
  1443  1445 -18379.500  724 5360 -18118.000 -22997.000  26.9%  71.0  560s
  1464  1466 -18346.500  735 5269 -18118.000 -22997.000  26.9%  70.4  565s
  1471  1473 -18332.500  739 5245 -18118.000 -22997.000  26.9%  70.2  587s
  1480  1482 -18307.500  743 5258 -18118.000 -22997.000  26.9%  70.2  590s
  1502  1504 -18282.000  754 5187 -18118.000 -22997.000  26.9%  69.7  595s
  1524  1526 -18237.000  766 5157 -18118.000 -22997.000  26.9%  69.1  600s
  1546  1548 -18204.500  777 5052 -18118.000 -22997.000  26.9%  68.7  605s
H 1560  1560                    -18124.00000 -22997.000  26.9%  68.4  608s
  1567  1569 -18163.500  788 5004 -18124.000 -22997.000  26.9%  68.4  610s
H 1586  1586                    -18130.00000 -22997.000  26.8%  68.0  614s
  1587  1587 infeasible  798      -18130.000 -22997.000  26.8%  68.0  615s
H 1612  1582                    -18142.00000 -22997.000  26.8%  67.3  620s
  1620  1579 -18897.000  612 6719 -18142.000 -22996.500  26.8%  67.1  668s
  1622  1580 -20372.000  337 2896 -18142.000 -22996.500  26.8%  67.0  698s
  1623  1581 -20330.000  343 3716 -18142.000 -22996.500  26.8%  67.0  704s
  1624  1582 -19057.000  579 4354 -18142.000 -22469.889  23.9%  67.0  723s
  1625  1582 -20635.000  297 4847 -18142.000 -21976.595  21.1%  66.9  773s
  1626  1583 -19342.000  503 5049 -18142.000 -21850.576  20.4%  66.9  817s
  1627  1584 -20337.000  342 5124 -18142.000 -21823.665  20.3%  66.8  830s
  1629  1585 -21024.000  238 5188 -18142.000 -21817.406  20.3%  66.8  837s
  1631  1586 -21663.500  155 5213 -18142.000 -21817.014  20.3%  66.7  840s
  1633  1588 -18651.000  668 5187 -18142.000 -21817.010  20.3%  66.6  851s
  1634  1588 -20096.000  376 5550 -18142.000 -21446.588  18.2%  66.5 1017s
  1635  1589 -18818.500  628 6043 -18142.000 -21328.535  17.6%  66.5 1263s
  1636  1590 -21291.633   63 6321 -18142.000 -21291.633  17.4%  66.5 1533s
  1637  1590 -19133.000  552 6406 -18142.000 -21280.084  17.3%  66.4 1680s
  1638  1591 -20026.167  387 6509 -18142.000 -21276.657  17.3%  66.4 1750s
  1639  1592 -19445.000  485 6567 -18142.000 -21275.228  17.3%  66.3 1773s
  1640  1592 -20713.000  285 6591 -18142.000 -21274.457  17.3%  66.3 1789s
  1641  1593 -20165.000  367 6692 -18142.000 -21274.170  17.3%  66.3 1796s
  1642  1594 -18353.500  734 6712 -18142.000 -21274.085  17.3%  66.2 1802s
  1643  1594 -20162.000  368 6705 -18142.000 -21274.058  17.3%  66.2 1806s
  1645  1596 -19499.000  475 6720 -18142.000 -21274.040  17.3%  66.1 1811s
  1647  1597 -21274.034   14 6745 -18142.000 -21274.034  17.3%  66.0 1828s
H 1647  1516                    -18148.00000 -20969.875  15.5%  66.0 2988s
  1649  1517 -18981.000  593 7697 -18148.000 -20877.890  15.0%  65.9 4052s

Cutting planes:
  Gomory: 73
  MIR: 502
  Flow cover: 2673
  Zero half: 1779
  RLT: 527
  BQP: 841

Explored 1649 nodes (445924 simplex iterations) in 4096.02 seconds (313.96 work units)
Thread count was 1 (of 72 available processors)

Solution count 10: -18148 -18142 -18130 ... 0

Time limit reached
Best objective -1.814800000000e+04, best bound -2.087600000000e+04, gap 15.0320%

User-callback calls 41682, time in user-callback 2.42 sec

BQP_SOLUTION, 2897, 13438, -6330.000000, 4096.021503, -1, 1, -1, 1, -1, 1, -1, -1, -1, 1, -1, 1, -1, 1, 1, -1, 1, -1, 1, 1, -1, 1, -1, 1, -1, 1, -1, 1, 1, -1, 1, -1, 1, -1, 1, 1, 1, 1, 1, 1, -1, 1, -1, -1, -1, -1, 1, 1, 1, -1, 1, -1, 1, -1, 1, -1, 1, -1, 1, 1, 1, -1, 1, -1, -1, -1, -1, 1, 1, -1, 1, -1, -1, -1, 1, -1, -1, -1, -1, 1, 1, 1, -1, 1, -1, -1, -1, 1, -1, -1, 1, -1, 1, -1, 1, -1, -1, -1, -1, -1, -1, 1, -1, 1, -1, -1, -1, -1, 1, -1, -1, -1, 1, 1, -1, 1, 1, -1, -1, 1, -1, -1, -1, 1, 1, 1, 1, 1, -1, -1, 1, -1, -1, 1, 1, -1, 1, -1, 1, -1, 1, -1, -1, -1, 1, 1, 1, 1, 1, -1, -1, -1, -1, 1, 1, 1, 1, -1, 1, -1, -1, -1, 1, 1, 1, -1, 1, 1, -1, 1, -1, -1, -1, 1, -1, 1, 1, 1, 1, -1, 1, 1, -1, -1, 1, 1, -1, -1, 1, -1, 1, 1, 1, -1, -1, -1, 1, 1, 1, 1, 1, -1, 1, 1, -1, -1, -1, 1, 1, -1, 1, 1, -1, 1, -1, 1, -1, 1, -1, 1, 1, -1, 1, 1, 1, 1, 1, -1, -1, 1, 1, -1, 1, 1, 1, -1, 1, -1, -1, -1, 1, 1, 1, 1, 1, -1, 1, -1, 1, -1, -1, 1, 1, 1, -1, 1, 1, 1, -1, 1, -1, 1, 1, 1, 1, 1, 1, 1, 1, 1, -1, -1, 1, -1, 1, 1, 1, -1, 1, 1, -1, -1, -1, 1, 1, 1, -1, 1, 1, 1, -1, 1, 1, -1, -1, 1, 1, -1, 1, -1, 1, 1, -1, 1, -1, -1, 1, -1, 1, 1, -1, 1, 1, 1, -1, -1, -1, -1, 1, -1, 1, -1, -1, 1, -1, 1, -1, -1, 1, 1, -1, 1, -1, 1, 1, -1, -1, -1, 1, -1, 1, -1, 1, 1, 1, 1, 1, -1, -1, -1, -1, 1, -1, 1, -1, 1, -1, 1, -1, -1, -1, -1, -1, 1, 1, 1, 1, -1, 1, -1, -1, -1, 1, 1, 1, 1, -1, 1, -1, 1, -1, 1, -1, -1, -1, -1, -1, 1, 1, -1, -1, 1, -1, -1, 1, -1, -1, 1, 1, -1, 1, 1, -1, -1, -1, 1, -1, 1, 1, 1, 1, 1, 1, -1, -1, -1, 1, 1, -1, 1, 1, -1, -1, -1, -1, -1, -1, 1, 1, 1, -1, 1, -1, 1, -1, -1, -1, -1, 1, -1, 1, 1, 1, -1, 1, -1, -1, -1, -1, 1, -1, 1, -1, -1, -1, 1, -1, -1, 1, -1, 1, 1, 1, -1, 1, -1, 1, 1, -1, -1, -1, 1, 1, -1, 1, 1, -1, 1, 1, -1, -1, 1, -1, 1, -1, -1, 1, -1, 1, 1, -1, 1, -1, 1, 1, -1, -1, 1, 1, -1, 1, -1, -1, 1, 1, 1, 1, -1, 1, -1, 1, 1, -1, -1, -1, 1, 1, 1, -1, -1, -1, -1, 1, -1, 1, -1, 1, 1, -1, -1, -1, -1, 1, 1, -1, 1, 1, 1, -1, 1, -1, 1, -1, -1, -1, -1, 1, 1, 1, 1, -1, 1, -1, -1, 1, 1, -1, 1, 1, 1, 1, -1, -1, 1, 1, 1, -1, -1, 1, 1, 1, 1, 1, 1, -1, -1, 1, -1, -1, 1, -1, 1, 1, -1, -1, -1, 1, 1, 1, -1, -1, 1, 1, 1, 1, 1, 1, 1, -1, -1, -1, 1, 1, 1, 1, 1, 1, 1, 1, 1, -1, 1, -1, 1, 1, 1, 1, 1, -1, 1, -1, 1, -1, -1, 1, 1, 1, 1, 1, 1, 1, 1, 1, -1, -1, 1, 1, -1, 1, 1, 1, 1, 1, 1, -1, -1, 1, 1, 1, 1, 1, 1, 1, -1, 1, -1, -1, 1, 1, 1, 1, -1, 1, 1, -1, -1, -1, 1, 1, 1, -1, 1, 1, 1, 1, 1, -1, 1, -1, 1, 1, 1, 1, 1, 1, 1, -1, -1, 1, 1, -1, 1, 1, 1, 1, 1, -1, 1, -1, -1, 1, 1, 1, 1, 1, 1, -1, 1, -1, -1, 1, 1, 1, 1, 1, 1, 1, 1, 1, 1, -1, -1, 1, 1, 1, 1, 1, 1, -1, 1, 1, -1, -1, 1, 1, 1, 1, 1, 1, 1, 1, 1, 1, -1, 1, 1, 1, 1, 1, 1, 1, -1, 1, 1, -1, 1, 1, 1, 1, -1, 1, 1, -1, 1, 1, -1, 1, 1, 1, 1, 1, 1, 1, 1, 1, 1, -1, 1, 1, 1, 1, 1, 1, 1, -1, 1, 1, -1, 1, 1, 1, 1, 1, -1, 1, 1, 1, -1, 1, 1, 1, -1, -1, 1, 1, 1, 1, 1, 1, -1, 1, 1, 1, 1, 1, -1, -1, 1, -1, -1, 1, 1, 1, 1, 1, 1, -1, 1, -1, 1, -1, 1, 1, 1, 1, 1, 1, -1, -1, 1, 1, -1, -1, 1, 1, 1, 1, 1, -1, 1, -1, -1, -1, 1, 1, -1, 1, 1, -1, -1, 1, -1, -1, -1, 1, 1, 1, 1, 1, -1, -1, 1, -1, -1, -1, -1, 1, 1, 1, -1, 1, -1, 1, -1, -1, -1, 1, 1, 1, 1, 1, 1, -1, 1, -1, -1, -1, 1, 1, 1, -1, 1, -1, -1, -1, -1, -1, -1, 1, 1, -1, 1, 1, 1, -1, 1, -1, -1, -1, -1, 1, -1, 1, -1, 1, -1, -1, -1, 1, -1, 1, -1, -1, 1, -1, -1, 1, -1, -1, -1, -1, 1, -1, 1, -1, -1, 1, 1, -1, -1, -1, 1, -1, 1, 1, 1, -1, -1, 1, -1, -1, -1, -1, 1, -1, -1, 1, -1, 1, -1, -1, -1, -1, -1, 1, -1, 1, -1, -1, 1, -1, -1, -1, -1, 1, 1, -1, 1, -1, -1, -1, 1, -1, -1, 1, -1, -1, 1, 1, -1, -1, -1, -1, -1, -1, -1, 1, -1, 1, -1, -1, -1, -1, 1, -1, 1, 1, -1, -1, -1, -1, -1, -1, -1, -1, 1, -1, -1, -1, -1, -1, -1, 1, -1, -1, 1, -1, -1, 1, -1, -1, 1, -1, -1, -1, -1, 1, 1, 1, -1, 1, -1, 1, -1, -1, -1, 1, 1, -1, 1, -1, 1, -1, 1, -1, -1, -1, -1, -1, -1, 1, -1, -1, 1, -1, -1, -1, -1, 1, 1, -1, -1, 1, -1, -1, -1, -1, 1, -1, 1, 1, 1, -1, -1, 1, -1, -1, 1, -1, -1, -1, 1, -1, -1, -1, -1, 1, -1, -1, -1, -1, -1, 1, 1, -1, 1, -1, -1, 1, -1, -1, 1, -1, 1, 1, -1, 1, -1, 1, -1, 1, -1, -1, 1, 1, -1, -1, -1, -1, -1, -1, 1, -1, -1, -1, 1, 1, 1, -1, -1, 1, -1, 1, 1, 1, -1, -1, 1, -1, -1, -1, -1, -1, 1, -1, 1, -1, 1, 1, -1, -1, -1, -1, 1, 1, -1, 1, 1, 1, 1, -1, 1, -1, -1, 1, -1, -1, -1, 1, -1, 1, 1, -1, 1, -1, -1, 1, -1, -1, 1, 1, -1, -1, 1, -1, 1, -1, -1, 1, 1, -1, 1, 1, -1, -1, 1, 1, 1, 1, -1, 1, -1, 1, -1, -1, 1, -1, -1, -1, 1, -1, 1, -1, 1, 1, -1, -1, -1, -1, 1, 1, -1, 1, -1, 1, 1, -1, -1, 1, -1, 1, 1, 1, 1, -1, 1, 1, 1, 1, -1, -1, 1, -1, -1, 1, -1, 1, 1, -1, 1, 1, -1, 1, 1, -1, 1, 1, -1, 1, 1, 1, 1, -1, 1, -1, -1, 1, -1, 1, 1, -1, 1, 1, -1, 1, -1, -1, 1, 1, 1, -1, -1, -1, 1, -1, 1, 1, -1, 1, 1, -1, 1, 1, 1, 1, -1, 1, 1, 1, 1, -1, -1, 1, 1, 1, 1, 1, 1, -1, 1, 1, -1, 1, 1, 1, 1, -1, 1, 1, 1, 1, 1, -1, -1, 1, 1, -1, -1, 1, 1, -1, -1, 1, 1, -1, 1, -1, 1, -1, -1, 1, -1, 1, 1, 1, -1, -1, 1, 1, -1, -1, 1, -1, -1, 1, 1, -1, -1, 1, -1, -1, -1, 1, 1, -1, 1, 1, -1, -1, -1, 1, -1, -1, 1, -1, -1, 1, -1, -1, -1, 1, 1, -1, -1, 1, -1, -1, 1, 1, 1, -1, -1, 1, 1, -1, 1, 1, -1, 1, 1, -1, -1, 1, -1, -1, -1, -1, -1, -1, -1, 1, 1, -1, -1, 1, -1, 1, -1, -1, 1, 1, 1, 1, -1, 1, -1, -1, -1, 1, 1, 1, 1, -1, 1, -1, -1, 1, -1, 1, 1, 1, -1, 1, -1, -1, -1, 1, 1, -1, -1, 1, 1, -1, 1, -1, -1, -1, -1, 1, -1, 1, -1, 1, 1, 1, -1, -1, -1, -1, 1, -1, 1, 1, 1, -1, 1, -1, -1, -1, -1, 1, 1, 1, 1, -1, 1, -1, -1, 1, -1, 1, -1, 1, 1, 1, -1, 1, 1, -1, -1, -1, 1, -1, -1, 1, 1, -1, 1, 1, -1, 1, -1, 1, 1, 1, 1, 1, -1, 1, 1, -1, -1, -1, -1, 1, -1, 1, 1, 1, -1, -1, -1, 1, -1, -1, 1, 1, 1, 1, -1, -1, -1, 1, -1, 1, -1, 1, 1, 1, 1, 1, -1, 1, -1, -1, -1, 1, 1, 1, 1, 1, 1, -1, -1, -1, 1, -1, 1, 1, 1, 1, -1, -1, -1, 1, -1, -1, -1, 1, 1, 1, 1, -1, 1, -1, 1, -1, -1, 1, 1, 1, -1, 1, -1, -1, 1, -1, -1, -1, -1, 1, 1, 1, -1, 1, -1, 1, -1, -1, -1, -1, 1, 1, 1, 1, 1, -1, -1, -1, 1, -1, -1, 1, 1, 1, 1, -1, -1, -1, 1, -1, -1, -1, 1, 1, 1, -1, -1, 1, -1, -1, -1, -1, -1, 1, 1, -1, 1, -1, -1, -1, -1, 1, -1, -1, 1, 1, -1, 1, 1, -1, -1, 1, 1, -1, -1, 1, 1, 1, -1, 1, -1, -1, -1, 1, 1, -1, 1, -1, -1, -1, -1, -1, -1, 1, 1, -1, -1, 1, 1, -1, -1, -1, -1, -1, 1, -1, -1, 1, 1, -1, 1, 1, -1, -1, 1, 1, -1, -1, 1, 1, 1, -1, 1, -1, 1, -1, 1, -1, 1, -1, 1, -1, -1, 1, -1, 1, -1, 1, -1, -1, 1, 1, -1, -1, 1, -1, 1, 1, 1, -1, -1, 1, 1, -1, -1, -1, -1, -1, 1, -1, -1, 1, 1, 1, -1, 1, -1, -1, 1, -1, 1, -1, 1, 1, 1, -1, -1, 1, -1, -1, 1, -1, -1, 1, 1, 1, -1, -1, 1, -1, 1, -1, -1, -1, 1, 1, 1, -1, -1, 1, -1, 1, -1, 1, -1, 1, 1, 1, -1, -1, -1, 1, -1, -1, 1, -1, 1, 1, 1, 1, -1, 1, -1, -1, -1, 1, 1, -1, 1, 1, 1, -1, -1, 1, -1, -1, -1, 1, 1, 1, 1, -1, 1, -1, 1, 1, -1, -1, -1, 1, 1, -1, 1, -1, 1, -1, -1, 1, 1, -1, 1, 1, 1, -1, -1, 1, 1, -1, 1, -1, 1, 1, -1, 1, 1, -1, -1, 1, -1, 1, -1, -1, 1, 1, -1, 1, -1, 1, -1, 1, -1, -1, -1, 1, 1, -1, 1, 1, -1, 1, -1, 1, -1, -1, -1, -1, -1, 1, -1, -1, -1, -1, -1, -1, -1, 1, 1, -1, 1, -1, 1, -1, -1, 1, 1, -1, 1, -1, 1, -1, -1, 1, -1, -1, -1, 1, -1, 1, -1, 1, -1, -1, -1, -1, -1, 1, -1, -1, 1, -1, -1, 1, -1, 1, -1, 1, 1, -1, -1, 1, -1, -1, 1, -1, -1, -1, 1, -1, 1, -1, -1, -1, 1, 1, -1, -1, -1, 1, -1, 1, -1, -1, -1, 1, 1, -1, -1, 1, 1, -1, -1, 1, -1, -1, 1, -1, -1, 1, -1, 1, -1, 1, -1, -1, -1, -1, 1, -1, -1, -1, 1, -1, -1, 1, -1, -1, -1, -1, 1, -1, -1, 1, -1, 1, -1, -1, -1, -1, 1, -1, -1, 1, 1, -1, -1, -1, 1, -1, -1, 1, 1, -1, -1, -1, 1, -1, 1, -1, -1, -1, 1, -1, -1, 1, 1, -1, -1, -1, -1, -1, -1, 1, 1, -1, -1, 1, 1, -1, -1, 1, 1, -1, 1, 1, -1, 1, -1, 1, -1, 1, 1, -1, -1, 1, 1, -1, 1, 1, -1, 1, -1, -1, -1, -1, 1, 1, -1, 1, -1, 1, -1, 1, 1, -1, -1, 1, -1, 1, 1, 1, -1, -1, 1, 1, -1, 1, 1, 1, 1, 1, -1, 1, -1, 1, -1, -1, -1, 1, 1, 1, 1, -1, 1, -1, 1, 1, 1, -1, 1, 1, 1, -1, -1, -1, -1, 1, 1, -1, -1, 1, -1, 1, 1, -1, 1, -1, 1, 1, 1, -1, 1, -1, 1, -1, -1, -1, -1, 1, 1, 1, -1, 1, -1, -1, -1, 1, -1, -1, 1, 1, -1, -1, 1, -1, -1, -1, -1, -1, -1, 1, 1, 1, 1, 1, -1, 1, 1, -1, -1, -1, 1, -1, -1, 1, 1, -1, 1, -1, 1, -1, 1, 1, 1, 1, 1, -1, -1, 1, -1, -1, 1, -1, 1, 1, 1, 1, 1, -1, -1, 1, -1, 1, -1, 1, 1, 1, -1, 1, -1, 1, -1, 1, -1, 1, -1, 1, 1, -1, -1, 1, 1, -1, 1, -1, 1, 1, 1, 1, -1, 1, -1, 1, -1, 1, 1, 1, -1, 1, -1, 1, -1, 1, -1, 1, 1, -1, 1, 1, 1, 1, -1, 1, -1, 1, 1, -1, 1, 1, 1, 1, -1, 1, 1, 1, -1, 1, 1, 1, 1, 1, 1, -1, 1, 1, 1, 1, 1, 1, 1, 1, 1, -1, -1, -1, 1, 1, 1, -1, 1, 1, 1, 1, -1, 1, -1, 1, 1, 1, 1, 1, 1, 1, 1, 1, 1, -1, -1, 1, 1, 1, 1, 1, 1, 1, -1, 1, -1, 1, 1, -1, 1, -1, 1, 1, 1, 1, 1, -1, 1, 1, 1, 1, 1, 1, 1, -1, 1, -1, 1, 1, 1, -1, 1, 1, 1, 1, -1, 1, -1, 1, 1, 1, 1, 1, -1, 1, 1, 1, 1, -1, 1, 1, 1, 1, 1, 1, 1, 1, 1, -1, -1, -1, 1, 1, 1, 1, 1, -1, 1, 1, -1, 1, 1, 1, 1, 1, 1, 1, 1, 1, 1, 1, -1, -1, 1, 1, 1, 1, 1, 1, 1, -1, 1, 1, 1, 1, 1, 1, -1, 1, -1, 1, 1, 1, -1, -1, 1, 1, 1, 1, 1, -1, -1, -1, 1, -1, -1, 1, 1, 1, 1, 1, 1, -1, 1, -1, 1, -1, 1, 1, 1, 1, 1, -1, -1, 1, 1, 1, -1, -1, 1, 1, 1, 1, -1, -1, 1, 1, -1, 1, 1, 1, 1, 1, 1, -1, 1, 1, 1, -1, 1, 1, 1, 1, -1, 1, -1, -1, 1, 1, -1, 1, -1, 1, 1, 1, -1, -1, -1, 1, 1, -1, 1, 1, -1, 1, -1, 1, -1, 1, 1, 1, -1, 1, 1, 1, 1, -1, -1, -1, -1, 1, 1, -1, 1, 1, -1, 1, 1, 1, -1, 1, -1, 1, 1, 1, 1, -1, 1, 1, -1, -1, -1, 1, 1, 1, -1, -1, -1, 1, 1, -1, -1, 1, 1, 1, 1, 1, 1, -1, 1, 1, 1, -1, -1, -1, 1, -1, 1, -1, -1, -1, 1, -1, -1, -1, -1, -1, 1, 1, -1, -1, 1, 1, -1, -1, -1, -1, -1, 1, 1, 1, -1, 1, 1, -1, -1, -1, -1, 1, 1, 1, -1, -1, 1, 1, -1, -1, -1, -1, 1, 1, -1, -1, -1, 1, -1, 1, -1, 1, 1, -1, 1, 1, 1, -1, 1, 1, -1, -1, -1, 1, -1, 1, 1, 1, -1, 1, 1, -1, -1, -1, 1, 1, 1, 1, 1, 1, 1, -1, -1, -1, -1, 1, 1, 1, 1, 1, -1, -1, 1, -1, 1, -1, 1, -1, 1, 1, 1, -1, 1, 1, -1, -1, 1, -1, 1, -1, 1, 1, -1, 1, -1, -1, -1, -1, 1, -1, 1, 1, 1, 1, -1, -1, -1, -1, -1, -1, 1, -1, 1, 1, -1, -1, 1, -1, -1, -1, 1, 1, 1, 1, 1, -1, -1, 1, -1, 1, -1, 1, -1, -1, -1, -1, 1, -1, 1, -1, -1, -1, 1, -1, -1, 1, 1, -1, 1, -1, -1, -1, -1, -1, 1, -1, 1, 1, -1, 1, -1, -1, -1, 1, -1, 1, -1, -1, -1, -1, -1, -1, -1, -1, 1, -1, 1, -1, -1, -1, -1, -1, -1, -1, -1, 1, 1, 1, -1, 1, -1, -1, 1, -1, -1, -1, 1, 1, 1, -1, -1, 1, -1, -1, -1, -1, -1, 1, -1, 1, -1, -1, 1, 1, -1, -1, -1, 1, 1, -1, 1, -1, -1, 1, -1, -1, 1, -1, -1, -1, -1, 1, -1, -1, 1, -1, 1, -1, -1, -1, -1, 1, 1, 1, -1, 1, -1, -1, -1, 1, -1, 1, 1, 1, -1, 1, 1, -1, 1, -1, 1, -1, 1, 1, -1, 1, -1, -1, -1, -1, -1, -1, 1, 1, 1, 1, 1, -1
BQP_DATA, 2897, 13438, -6330.000000, -9058.000000, -18148.000000, -20876.000000, 4096.021503, 5027, 1649
